8
2147483647 38 59 30 45 86 29 15 
38 2147483647 15 21 36 100 30 12 
59 15 2147483647 4 61 18 16 99 
30 21 4 2147483647 3 1 5 82 
45 36 61 3 2147483647 35 74 22 
86 100 18 1 35 2147483647 33 45 
29 30 16 5 74 33 2147483647 92 
15 12 99 82 22 45 92 2147483647 
